(set-logic HORN)
(declare-datatypes ((Tok_0 0)) (((C_0 ) (D_0 ) (X_0 ) (Y_0 ) (Pl_0 ))))
(declare-datatypes ((list_0 0)) (((nil_0 ) (cons_0 (head_0 Tok_0) (tail_0 list_0)))))
(declare-datatypes ((T_0 0)) (((TX_0 ) (TY_0 ))))
(declare-fun diseqT_0 (T_0 T_0) Bool)
(declare-datatypes ((E_0 0)) (((Plus_0 (projPlus_0 T_0) (projPlus_1 E_0)) (Term_0 (projTerm_0 T_0)))))
(declare-fun diseqE_0 (E_0 E_0) Bool)
(declare-fun linTerm_0 (list_0 T_0) Bool)
(declare-fun x_2 (list_0 list_0 list_0) Bool)
(declare-fun lin_0 (list_0 E_0) Bool)
(assert (diseqT_0 TX_0 TY_0))
(assert (diseqT_0 TY_0 TX_0))
(assert (forall ((x_49 T_0) (x_50 E_0) (x_51 T_0))
	(diseqE_0 (Plus_0 x_49 x_50) (Term_0 x_51))))
(assert (forall ((x_52 T_0) (x_53 T_0) (x_54 E_0))
	(diseqE_0 (Term_0 x_52) (Plus_0 x_53 x_54))))
(assert (forall ((x_55 T_0) (x_56 E_0) (x_57 T_0) (x_58 E_0))
	(=> (diseqT_0 x_55 x_57) (diseqE_0 (Plus_0 x_55 x_56) (Plus_0 x_57 x_58)))))
(assert (forall ((x_55 T_0) (x_56 E_0) (x_57 T_0) (x_58 E_0))
	(=> (diseqE_0 x_56 x_58) (diseqE_0 (Plus_0 x_55 x_56) (Plus_0 x_57 x_58)))))
(assert (forall ((x_59 T_0) (x_60 T_0))
	(=> (diseqT_0 x_59 x_60) (diseqE_0 (Term_0 x_59) (Term_0 x_60)))))
(assert (linTerm_0 (cons_0 Y_0 nil_0) TY_0))
(assert (linTerm_0 (cons_0 X_0 nil_0) TX_0))
(assert (forall ((x_8 list_0) (z_0 Tok_0) (xs_0 list_0) (y_1 list_0))
	(=> (x_2 x_8 xs_0 y_1) (x_2 (cons_0 z_0 x_8) (cons_0 z_0 xs_0) y_1))))
(assert (forall ((x_9 list_0))
	(x_2 x_9 nil_0 x_9)))
(assert (forall ((x_10 list_0) (t_1 T_0))
	(=> (linTerm_0 x_10 t_1) (lin_0 x_10 (Term_0 t_1)))))
(assert (forall ((x_12 list_0) (x_13 list_0) (x_14 list_0) (x_15 list_0) (a_0 T_0) (b_0 E_0))
	(=> (and (linTerm_0 x_13 a_0) (lin_0 x_14 b_0) (x_2 x_15 (cons_0 Pl_0 nil_0) x_14) (x_2 x_12 x_13 x_15)) (lin_0 x_12 (Plus_0 a_0 b_0)))))
(assert (forall ((x_17 list_0) (u_0 E_0) (v_0 E_0))
	(=> (and (diseqE_0 u_0 v_0) (lin_0 x_17 u_0) (lin_0 x_17 v_0)) false)))
(check-sat)
(get-model)
